c t pwmc
c file mc2023_track4_093.cnf
p cnf 288 1202
c p show 251 252 253 254 255 256 257 258 259 260 261 262 263 264 265 266 267 268 269 270 271 272 273 274 275 276 277 278 279 280 281 282 283 284 285 286 287 0
2 269 -3 0
-2 -269 0
-2 3 0
-3 286 4 200 202 0
-3 -286 4 -200 202 0
3 -202 0
3 286 -200 0
3 -4 0
3 -286 200 0
4 287 -5 0
-4 -287 0
-4 5 0
5 6 -196 0
5 -6 196 0
-5 -6 -196 0
-5 6 196 0
6 -7 195 0
6 -7 -191 0
6 -191 195 0
-6 191 -195 0
-6 7 -195 0
-6 7 191 0
7 -8 21 0
7 21 -30 0
7 -8 -30 0
-7 -21 30 0
-7 8 -21 0
-7 8 30 0
-8 9 14 0
-8 -9 -14 0
8 -9 14 0
8 9 -14 0
9 -10 12 0
9 10 -12 0
-9 10 12 0
-9 -10 -12 0
-10 259 267 0
-10 -259 266 11 0
-10 267 -11 0
-10 -266 -267 11 0
10 -267 -11 0
10 259 266 -267 0
10 -259 -266 267 11 0
-11 -265 -266 0
-11 265 266 0
11 265 -266 0
11 -265 266 0
-12 258 -13 0
-12 257 13 0
-12 268 13 0
12 -258 -13 0
12 -257 -268 13 0
-13 -267 -268 0
-13 267 268 0
13 267 -268 0
13 -267 268 0
-14 15 19 0
-14 19 -20 0
-14 15 -20 0
14 -15 20 0
14 -19 20 0
14 -15 -19 0
-15 11 18 0
-15 16 17 0
-15 11 16 0
-15 17 18 0
15 -11 -17 0
15 -16 -18 0
16 -265 -266 267 0
16 265 266 -267 0
-16 -265 -267 0
-16 266 267 0
-16 265 -266 0
-17 -259 -267 0
-17 259 267 0
17 259 -267 0
17 -259 267 0
-18 -258 -267 0
-18 258 267 0
18 258 -267 0
18 -258 267 0
-19 257 -13 0
-19 256 13 0
-19 268 13 0
19 -257 -13 0
19 -256 -268 13 0
20 264 -265 0
20 263 -265 0
-20 265 0
-20 -263 -264 0
-21 -22 24 0
-21 24 26 0
-21 -22 26 0
21 -24 -26 0
21 22 -24 0
21 22 -26 0
-22 -19 -23 0
-22 19 23 0
22 19 -23 0
22 -19 23 0
23 15 -20 0
23 -15 20 0
-23 -15 -20 0
-23 15 20 0
-24 259 265 0
-24 -259 264 25 0
-24 265 -25 0
-24 -264 -265 25 0
24 -265 -25 0
24 259 264 -265 0
24 -259 -264 265 25 0
-25 -263 -264 0
-25 263 264 0
25 263 -264 0
25 -263 264 0
-26 -24 27 0
-26 27 29 0
-26 -24 29 0
26 -27 -29 0
26 24 -27 0
26 24 -29 0
-27 11 28 0
-27 16 18 0
-27 11 16 0
-27 18 28 0
27 -11 -18 0
27 -16 -28 0
-28 -257 -267 0
-28 257 267 0
28 257 -267 0
28 -257 267 0
-29 256 -13 0
-29 255 13 0
-29 268 13 0
29 -256 -13 0
29 -255 -268 13 0
30 31 -54 0
30 31 -52 0
30 -52 -54 0
-30 52 54 0
-30 -31 54 0
-30 -31 52 0
-31 -32 34 0
-31 34 41 0
-31 -32 41 0
31 32 -41 0
31 -34 -41 0
31 32 -34 0
32 -24 33 0
32 24 -33 0
-32 24 33 0
-32 -24 -33 0
-33 27 29 0
-33 -27 -29 0
33 -27 29 0
33 27 -29 0
-34 35 -36 0
-34 -36 37 0
-34 35 37 0
34 -35 -37 0
34 36 -37 0
34 -35 36 0
-35 255 -13 0
-35 254 13 0
-35 268 13 0
35 -255 -13 0
35 -254 -268 13 0
36 262 -263 0
36 261 -263 0
-36 263 0
-36 -261 -262 0
-37 25 40 0
-37 38 39 0
-37 25 38 0
-37 39 40 0
37 -25 -39 0
37 -38 -40 0
38 -263 -264 265 0
38 263 264 -265 0
-38 -263 -265 0
-38 264 265 0
-38 263 -264 0
-39 -259 -265 0
-39 259 265 0
39 259 -265 0
39 -259 265 0
-40 -258 -265 0
-40 258 265 0
40 258 -265 0
40 -258 265 0
-41 42 44 0
-41 44 46 0
-41 42 46 0
41 -42 -46 0
41 -44 -46 0
41 -42 -44 0
-42 11 43 0
-42 16 28 0
-42 11 16 0
-42 28 43 0
42 -11 -28 0
42 -16 -43 0
-43 -256 -267 0
-43 256 267 0
43 256 -267 0
43 -256 267 0
-44 259 263 0
-44 -259 262 45 0
-44 263 -45 0
-44 -262 -263 45 0
44 -263 -45 0
44 259 262 -263 0
44 -259 -262 263 45 0
-45 -261 -262 0
-45 261 262 0
45 261 -262 0
45 -261 262 0
-46 47 49 0
-46 49 50 0
-46 47 50 0
46 -47 -50 0
46 -49 -50 0
46 -47 -49 0
-47 11 48 0
-47 16 43 0
-47 11 16 0
-47 43 48 0
47 -11 -43 0
47 -16 -48 0
-48 -255 -267 0
-48 255 267 0
48 255 -267 0
48 -255 267 0
-49 254 -13 0
-49 253 13 0
-49 268 13 0
49 -254 -13 0
49 -253 -268 13 0
-50 25 51 0
-50 38 40 0
-50 25 38 0
-50 40 51 0
50 -25 -40 0
50 -38 -51 0
-51 -257 -265 0
-51 257 265 0
51 257 -265 0
51 -257 265 0
-52 -26 -53 0
-52 26 53 0
52 26 -53 0
52 -26 53 0
53 -22 24 0
53 22 -24 0
-53 22 24 0
-53 -22 -24 0
54 -55 57 0
54 57 -74 0
54 -55 -74 0
-54 -57 74 0
-54 55 -57 0
-54 55 74 0
-55 -41 -56 0
-55 41 56 0
55 41 -56 0
55 -41 56 0
56 -32 34 0
56 32 -34 0
-56 32 34 0
-56 -32 -34 0
-57 58 -60 0
-57 -60 62 0
-57 58 62 0
57 -58 -62 0
57 60 -62 0
57 -58 60 0
-58 46 59 0
-58 -46 -59 0
58 -46 59 0
58 46 -59 0
-59 42 44 0
-59 -42 -44 0
59 -42 44 0
59 42 -44 0
60 -35 61 0
60 35 -61 0
-60 35 61 0
-60 -35 -61 0
-61 36 37 0
-61 -36 -37 0
61 -36 37 0
61 36 -37 0
-62 -44 63 0
-62 63 70 0
-62 -44 70 0
62 -63 -70 0
62 44 -63 0
62 44 -70 0
-63 64 68 0
63 -64 0
63 -68 0
-64 45 67 0
-64 65 66 0
-64 45 65 0
-64 66 67 0
64 -45 -66 0
64 -65 -67 0
65 -261 -262 263 0
65 261 262 -263 0
-65 -261 -263 0
-65 262 263 0
-65 261 -262 0
-66 -259 -263 0
-66 259 263 0
66 259 -263 0
66 -259 263 0
-67 -258 -263 0
-67 258 263 0
67 258 -263 0
67 -258 263 0
-68 11 69 0
-68 16 48 0
-68 11 16 0
-68 48 69 0
68 -11 -48 0
68 -16 -69 0
-69 -254 -267 0
-69 254 267 0
69 254 -267 0
69 -254 267 0
-70 -261 71 0
-70 71 72 0
-70 -261 72 0
70 261 -72 0
70 -71 -72 0
70 261 -71 0
-71 253 -13 0
-71 252 13 0
-71 268 13 0
71 -253 -13 0
71 -252 -268 13 0
-72 25 73 0
-72 38 51 0
-72 25 38 0
-72 51 73 0
72 -25 -51 0
72 -38 -73 0
-73 -256 -265 0
-73 256 265 0
73 256 -265 0
73 -256 265 0
74 75 -89 0
74 75 -87 0
74 -87 -89 0
-74 87 89 0
-74 -75 89 0
-74 -75 87 0
-75 76 -85 0
-75 78 -85 0
-75 76 78 0
75 -76 -78 0
75 -78 85 0
75 -76 85 0
76 -47 77 0
76 47 -77 0
-76 47 77 0
-76 -47 -77 0
-77 49 50 0
-77 -49 -50 0
77 -49 50 0
77 49 -50 0
78 79 -80 0
-78 -79 0
-78 80 0
79 -64 68 0
79 64 -68 0
-79 64 68 0
-79 -64 -68 0
-80 81 82 0
-80 82 84 0
-80 81 84 0
80 -81 -84 0
80 -82 -84 0
80 -81 -82 0
-81 261 0
-81 -259 260 0
81 -260 -261 0
81 259 -261 0
-82 11 83 0
-82 16 69 0
-82 11 16 0
-82 69 83 0
82 -11 -69 0
82 -16 -83 0
-83 -253 -267 0
-83 253 267 0
83 253 -267 0
83 -253 267 0
-84 252 -13 0
-84 251 13 0
-84 268 13 0
84 -252 -13 0
84 -251 -268 13 0
-85 -70 -86 0
-85 70 86 0
85 70 -86 0
85 -70 86 0
86 -44 63 0
86 44 -63 0
-86 44 63 0
-86 -44 -63 0
-87 -62 -88 0
-87 62 88 0
87 62 -88 0
87 -62 88 0
88 58 -60 0
88 -58 60 0
-88 -58 -60 0
-88 58 60 0
89 -90 106 0
89 -90 -104 0
89 -104 106 0
-89 104 -106 0
-89 90 -106 0
-89 90 104 0
90 -101 -103 0
90 91 -101 0
90 91 -103 0
-90 -91 101 0
-90 101 103 0
-90 -91 103 0
-91 92 94 0
-91 94 96 0
-91 92 96 0
91 -92 -96 0
91 -94 -96 0
91 -92 -94 0
-92 25 93 0
-92 38 73 0
-92 25 38 0
-92 73 93 0
92 -25 -73 0
92 -38 -93 0
-93 -255 -265 0
-93 255 265 0
93 255 -265 0
93 -255 265 0
-94 45 95 0
-94 65 67 0
-94 45 65 0
-94 67 95 0
94 -45 -67 0
94 -65 -95 0
-95 -257 -263 0
-95 257 263 0
95 257 -263 0
95 -257 263 0
-96 97 100 0
-96 97 99 0
-96 99 100 0
96 -99 -100 0
96 -97 -100 0
96 -97 -99 0
-97 11 98 0
-97 16 83 0
-97 11 16 0
-97 83 98 0
97 -11 -83 0
97 -16 -98 0
-98 -252 -267 0
-98 252 267 0
98 252 -267 0
98 -252 267 0
99 -251 -13 0
-99 251 0
-99 13 0
-100 260 261 0
-100 -259 -260 -261 0
-100 259 261 0
-100 -258 260 0
100 258 260 -261 0
100 259 -260 -261 0
100 -259 -260 261 0
-101 -72 -102 0
-101 72 102 0
101 72 -102 0
101 -72 102 0
102 -261 71 0
102 261 -71 0
-102 261 71 0
-102 -261 -71 0
-103 79 80 0
-103 -79 -80 0
103 -79 80 0
103 79 -80 0
-104 -78 -105 0
-104 78 105 0
104 78 -105 0
104 -78 105 0
105 -76 85 0
105 76 -85 0
-105 76 85 0
-105 -76 -85 0
-106 107 122 0
-106 107 120 0
-106 120 122 0
106 -120 -122 0
106 -107 -122 0
106 -107 -120 0
-107 110 112 0
-107 108 110 0
-107 108 112 0
107 -108 -110 0
107 -110 -112 0
107 -108 -112 0
108 -96 109 0
108 96 -109 0
-108 96 109 0
-108 -96 -109 0
-109 92 94 0
-109 -92 -94 0
109 -92 94 0
109 92 -94 0
110 -81 111 0
110 81 -111 0
-110 81 111 0
-110 -81 -111 0
-111 82 84 0
-111 -82 -84 0
111 -82 84 0
111 82 -84 0
-112 113 116 0
-112 116 118 0
-112 113 118 0
112 -116 -118 0
112 -113 -116 0
112 -113 -118 0
113 -114 -115 0
-113 114 0
-113 115 0
-114 260 261 0
-114 -258 -260 -261 0
-114 258 261 0
-114 -257 260 0
114 257 260 -261 0
114 258 -260 -261 0
114 -258 -260 261 0
115 251 265 -267 0
115 265 266 -267 0
115 251 266 -267 0
-115 -251 -265 0
-115 -265 -266 0
-115 267 0
-115 -251 -266 0
-116 45 117 0
-116 65 95 0
-116 45 65 0
-116 95 117 0
116 -45 -95 0
116 -65 -117 0
-117 -256 -263 0
-117 256 263 0
117 256 -263 0
117 -256 263 0
-118 25 119 0
-118 38 93 0
-118 25 38 0
-118 93 119 0
118 -25 -93 0
118 -38 -119 0
-119 -254 -265 0
-119 254 265 0
119 254 -265 0
119 -254 265 0
120 103 -121 0
120 -103 121 0
-120 -103 -121 0
-120 103 121 0
121 -91 101 0
121 91 -101 0
-121 91 101 0
-121 -91 -101 0
-122 123 137 0
-122 123 135 0
-122 135 137 0
122 -135 -137 0
122 -123 -137 0
122 -123 -135 0
-123 124 126 0
-123 126 128 0
-123 124 128 0
123 -124 -128 0
123 -126 -128 0
123 -124 -126 0
-124 113 125 0
-124 -113 -125 0
124 -113 125 0
124 113 -125 0
-125 116 118 0
-125 -116 -118 0
125 -116 118 0
125 116 -118 0
-126 -97 -127 0
-126 97 127 0
126 97 -127 0
126 -97 127 0
127 -99 100 0
127 99 -100 0
-127 99 100 0
-127 -99 -100 0
-128 129 131 0
-128 131 133 0
-128 129 133 0
128 -129 -133 0
128 -131 -133 0
128 -129 -131 0
-129 25 130 0
-129 38 119 0
-129 25 38 0
-129 119 130 0
129 -25 -119 0
129 -38 -130 0
-130 -253 -265 0
-130 253 265 0
130 253 -265 0
130 -253 265 0
-131 45 132 0
-131 65 117 0
-131 45 65 0
-131 117 132 0
131 -45 -117 0
131 -65 -132 0
-132 -255 -263 0
-132 255 263 0
132 255 -263 0
132 -255 263 0
-133 16 134 0
-133 251 267 134 0
-133 -251 -267 134 0
133 -134 0
133 251 -267 -16 0
133 -251 267 -16 0
134 252 -267 -11 0
134 -252 267 -11 0
-134 11 0
-134 252 267 0
-134 -252 -267 0
135 -108 136 0
135 108 -136 0
-135 108 136 0
-135 -108 -136 0
-136 110 112 0
-136 -110 -112 0
136 -110 112 0
136 110 -112 0
-137 138 149 0
-137 138 147 0
-137 147 149 0
137 -147 -149 0
137 -138 -149 0
137 -138 -147 0
-138 139 141 0
-138 141 146 0
-138 139 146 0
138 -139 -146 0
138 -141 -146 0
138 -139 -141 0
-139 -129 -140 0
-139 129 140 0
139 129 -140 0
139 -129 140 0
140 -131 133 0
140 131 -133 0
-140 131 133 0
-140 -131 -133 0
-141 142 143 0
-141 143 144 0
-141 142 144 0
141 -143 -144 0
141 -142 -143 0
141 -142 -144 0
142 -251 -11 0
-142 251 0
-142 11 0
-143 260 261 0
-143 -257 -260 -261 0
-143 257 261 0
-143 -256 260 0
143 256 260 -261 0
143 257 -260 -261 0
143 -257 -260 261 0
-144 45 145 0
-144 65 132 0
-144 45 65 0
-144 132 145 0
144 -45 -132 0
144 -65 -145 0
-145 -254 -263 0
-145 254 263 0
145 254 -263 0
145 -254 263 0
-146 -114 -115 0
-146 114 115 0
146 114 -115 0
146 -114 115 0
147 124 -148 0
147 -124 148 0
-147 -124 -148 0
-147 124 148 0
148 -126 128 0
148 126 -128 0
-148 126 128 0
-148 -126 -128 0
-149 150 160 0
-149 150 158 0
-149 158 160 0
149 -158 -160 0
149 -150 -160 0
149 -150 -158 0
-150 151 153 0
-150 153 155 0
-150 151 155 0
150 -153 -155 0
150 -151 -153 0
150 -151 -155 0
-151 144 152 0
-151 -144 -152 0
151 -144 152 0
151 144 -152 0
-152 142 143 0
-152 -142 -143 0
152 -142 143 0
152 142 -143 0
-153 25 154 0
-153 38 130 0
-153 25 38 0
-153 130 154 0
153 -25 -130 0
153 -38 -154 0
-154 -252 -265 0
-154 252 265 0
154 252 -265 0
154 -252 265 0
155 -156 -157 0
-155 156 0
-155 157 0
-156 260 261 0
-156 -256 -260 -261 0
-156 256 261 0
-156 -255 260 0
156 255 260 -261 0
156 256 -260 -261 0
156 -256 -260 261 0
157 251 263 -265 0
157 263 264 -265 0
157 251 264 -265 0
-157 -251 -263 0
-157 -263 -264 0
-157 265 0
-157 -251 -264 0
158 139 -159 0
158 -139 159 0
-158 -139 -159 0
-158 139 159 0
159 -141 146 0
159 141 -146 0
-159 141 146 0
-159 -141 -146 0
-160 161 169 0
-160 161 167 0
-160 167 169 0
160 -167 -169 0
160 -161 -169 0
160 -161 -167 0
-161 162 163 0
-161 163 165 0
-161 162 165 0
161 -162 -165 0
161 -163 -165 0
161 -162 -163 0
-162 -156 -157 0
-162 156 157 0
162 156 -157 0
162 -156 157 0
-163 38 164 0
-163 251 265 164 0
-163 -251 -265 164 0
163 -164 0
163 251 -265 -38 0
163 -251 265 -38 0
164 252 -265 -25 0
164 -252 265 -25 0
-164 25 0
-164 252 265 0
-164 -252 -265 0
-165 45 166 0
-165 65 145 0
-165 45 65 0
-165 145 166 0
165 -45 -145 0
165 -65 -166 0
-166 -253 -263 0
-166 253 263 0
166 253 -263 0
166 -253 263 0
167 151 -168 0
167 -151 168 0
-167 -151 -168 0
-167 151 168 0
168 153 -155 0
168 -153 155 0
-168 -153 -155 0
-168 153 155 0
-169 170 177 0
-169 170 175 0
-169 175 177 0
169 -175 -177 0
169 -170 -177 0
169 -170 -175 0
-170 171 173 0
-170 171 172 0
-170 172 173 0
170 -172 -173 0
170 -171 -173 0
170 -171 -172 0
-171 260 261 0
-171 -255 -260 -261 0
-171 255 261 0
-171 -254 260 0
171 254 260 -261 0
171 255 -260 -261 0
171 -255 -260 261 0
172 -251 -25 0
-172 251 0
-172 25 0
-173 45 174 0
-173 65 166 0
-173 45 65 0
-173 166 174 0
173 -45 -166 0
173 -65 -174 0
-174 -252 -263 0
-174 252 263 0
174 252 -263 0
174 -252 263 0
175 162 -176 0
175 -162 176 0
-175 -162 -176 0
-175 162 176 0
176 -163 165 0
176 163 -165 0
-176 163 165 0
-176 -163 -165 0
-177 178 188 0
-177 188 190 0
-177 178 190 0
177 -188 -190 0
177 -178 -188 0
177 -178 -190 0
-178 179 181 0
-178 181 184 0
-178 179 184 0
178 -179 -184 0
178 -181 -184 0
178 -179 -181 0
-179 65 180 0
-179 251 263 180 0
-179 -251 -263 180 0
179 -180 0
179 251 -263 -65 0
179 -251 263 -65 0
180 252 -263 -45 0
180 -252 263 -45 0
-180 45 0
-180 252 263 0
-180 -252 -263 0
-181 -182 -183 0
-181 182 183 0
181 182 -183 0
181 -182 183 0
-182 260 261 0
-182 -254 -260 -261 0
-182 254 261 0
-182 -253 260 0
182 253 260 -261 0
182 254 -260 -261 0
182 -254 -260 261 0
183 251 261 -263 0
183 261 262 -263 0
183 251 262 -263 0
-183 -251 -261 0
-183 -261 -262 0
-183 263 0
-183 -251 -262 0
-184 186 187 0
-184 185 187 0
-184 185 186 0
184 -185 -187 0
184 -185 -186 0
184 -186 -187 0
185 -251 -45 0
-185 251 0
-185 45 0
-186 260 261 0
-186 -253 -260 -261 0
-186 253 261 0
-186 -252 260 0
186 252 260 -261 0
186 253 -260 -261 0
186 -253 -260 261 0
187 251 252 -261 0
187 251 260 -261 0
-187 -251 0
-187 261 0
-187 -252 -260 0
-188 -171 -189 0
-188 171 189 0
188 171 -189 0
188 -171 189 0
189 -172 173 0
189 172 -173 0
-189 172 173 0
-189 -172 -173 0
190 -182 -183 0
-190 182 0
-190 183 0
-191 -12 -192 0
-191 12 192 0
191 12 -192 0
191 -12 192 0
192 193 -194 0
192 -193 194 0
-192 -193 -194 0
-192 193 194 0
-193 259 -13 0
-193 258 13 0
-193 268 13 0
193 -259 -13 0
193 -258 -268 13 0
194 266 -267 0
194 265 -267 0
-194 267 0
-194 -265 -266 0
-195 10 14 0
-195 10 -12 0
-195 -12 14 0
195 12 -14 0
195 -10 -14 0
195 -10 12 0
196 197 -198 0
196 -197 198 0
-196 -197 -198 0
-196 197 198 0
-197 12 193 0
-197 193 -194 0
-197 12 -194 0
197 -12 194 0
197 -193 194 0
197 -12 -193 0
198 -259 -199 0
-198 259 0
-198 199 0
199 -267 -268 0
-199 267 0
-199 268 0
200 -7 201 0
200 7 -201 0
-200 7 201 0
-200 -7 -201 0
-201 191 195 0
-201 -191 -195 0
201 -191 195 0
201 191 -195 0
-202 -270 204 250 0
-202 203 204 250 0
202 -204 0
202 -250 0
202 270 -203 0
203 -251 -260 0
-203 251 0
-203 260 0
-204 -273 205 208 -248 0
-204 273 205 208 248 0
204 -205 0
204 273 -248 0
204 -208 0
204 -273 248 0
-205 -272 287 0
-205 -5 206 0
-205 287 206 0
-205 -272 -5 0
205 -287 5 0
205 272 -206 0
206 187 -207 0
206 -187 207 0
-206 -187 -207 0
-206 187 207 0
207 -185 186 0
207 185 -186 0
-207 185 186 0
-207 -185 -186 0
-208 -203 209 247 0
-208 270 209 247 0
208 -209 0
208 -247 0
208 -270 203 0
-209 -271 210 235 0
-209 210 234 235 0
209 -235 0
209 -210 0
209 271 -234 0
-210 -275 211 223 -232 0
-210 275 211 223 232 0
210 -211 0
210 275 -232 0
210 -223 0
210 -275 232 0
-211 -278 212 220 -221 0
-211 278 212 220 221 0
211 -212 0
211 278 -221 0
211 -220 0
211 -278 221 0
-212 281 213 218 0
-212 -281 213 -218 0
212 -213 0
212 -281 218 0
212 281 -218 0
-213 -280 214 0
-213 -279 216 0
-213 -279 -280 0
-213 214 216 0
213 280 -216 0
213 279 -214 0
214 137 -215 0
214 -137 215 0
-214 -137 -215 0
-214 137 215 0
215 123 -135 0
215 -123 135 0
-215 -123 -135 0
-215 123 135 0
216 122 -217 0
216 -122 217 0
-216 -122 -217 0
-216 122 217 0
217 107 -120 0
217 -107 120 0
-217 -107 -120 0
-217 107 120 0
218 106 -219 0
218 -106 219 0
-218 -106 -219 0
-218 106 219 0
219 -90 104 0
219 90 -104 0
-219 90 104 0
-219 -90 -104 0
-220 279 280 0
-220 -214 -216 0
-220 279 -216 0
-220 280 -214 0
220 -279 214 0
220 -280 216 0
221 149 -222 0
221 -149 222 0
-221 -149 -222 0
-221 149 222 0
222 138 -147 0
222 -138 147 0
-222 -138 -147 0
-222 138 147 0
-223 277 224 229 231 0
-223 -277 224 -229 231 0
223 -231 0
223 -277 229 0
223 -224 0
223 277 -229 0
-224 -276 225 0
-224 -274 227 0
-224 -274 -276 0
-224 225 227 0
224 276 -227 0
224 274 -225 0
225 178 -226 0
225 -178 226 0
-225 -178 -226 0
-225 178 226 0
226 188 -190 0
226 -188 190 0
-226 -188 -190 0
-226 188 190 0
227 169 -228 0
227 -169 228 0
-227 -169 -228 0
-227 169 228 0
228 161 -167 0
228 -161 167 0
-228 -161 -167 0
-228 161 167 0
229 160 -230 0
229 -160 230 0
-229 -160 -230 0
-229 160 230 0
230 150 -158 0
230 -150 158 0
-230 -150 -158 0
-230 150 158 0
-231 274 276 0
-231 -225 -227 0
-231 274 -227 0
-231 276 -225 0
231 -274 225 0
231 -276 227 0
232 177 -233 0
232 -177 233 0
-232 -177 -233 0
-232 177 233 0
233 170 -175 0
233 -170 175 0
-233 -170 -175 0
-233 170 175 0
234 -251 260 -261 0
234 -252 -260 261 0
234 251 -252 -260 0
234 -251 252 -261 0
-234 252 261 0
-234 251 260 0
-234 260 261 0
-234 251 252 0
-234 -251 -252 -260 -261 0
-235 -282 236 244 -245 0
-235 282 236 244 245 0
235 -236 0
235 282 -245 0
235 -244 0
235 -282 245 0
-236 285 237 242 0
-236 -285 237 -242 0
236 -237 0
236 -285 242 0
236 285 -242 0
-237 -284 238 0
-237 -283 240 0
-237 -283 -284 0
-237 238 240 0
237 284 -240 0
237 283 -238 0
238 -74 239 0
238 74 -239 0
-238 74 239 0
-238 -74 -239 0
-239 55 57 0
-239 -55 -57 0
239 -55 57 0
239 55 -57 0
240 -54 241 0
240 54 -241 0
-240 54 241 0
-240 -54 -241 0
-241 31 52 0
-241 -31 -52 0
241 -31 52 0
241 31 -52 0
242 -30 243 0
242 30 -243 0
-242 30 243 0
-242 -30 -243 0
-243 8 21 0
-243 -8 -21 0
243 -8 21 0
243 8 -21 0
-244 283 284 0
-244 -238 -240 0
-244 283 -240 0
-244 284 -238 0
244 -283 238 0
244 -284 240 0
245 -89 246 0
245 89 -246 0
-245 89 246 0
-245 -89 -246 0
-246 75 87 0
-246 -75 -87 0
246 -75 87 0
246 75 -87 0
247 -271 234 0
-247 271 0
-247 -234 0
248 184 -249 0
248 -184 249 0
-248 -184 -249 0
-248 184 249 0
249 -179 181 0
249 179 -181 0
-249 179 181 0
-249 -179 -181 0
250 -272 206 0
-250 272 0
-250 -206 0
-288 0
-2 0
c p weight 256 0.44138496 0
c p weight -256 0.55861504 0
c p weight 257 0.41156193 0
c p weight -257 0.58843807 0
c p weight 258 0.50555422 0
c p weight -258 0.49444578 0
c p weight 259 0.58613475 0
c p weight -259 0.41386525 0
c p weight 260 0.35282737 0
c p weight -260 0.64717263 0
c p weight 261 0.41961515 0
c p weight -261 0.58038485 0
c p weight 262 0.21309101 0
c p weight -262 0.78690899 0
c p weight 263 0.57325922 0
c p weight -263 0.42674078 0
c p weight 264 0.47449639 0
c p weight -264 0.52550361 0
c p weight 265 0.36194191 0
c p weight -265 0.63805809 0
c p weight 266 0.67535728 0
c p weight -266 0.32464272 0
c p weight 267 0.59106823 0
c p weight -267 0.40893177 0
c p weight 268 0.63334103 0
c p weight -268 0.36665897 0
c p weight 269 0.33480173 0
c p weight -269 0.66519827 0
c p weight 270 0.64065717 0
c p weight -270 0.35934283 0
c p weight 271 0.60015084 0
c p weight -271 0.39984916 0
c p weight 272 0.22313165 0
c p weight -272 0.77686835 0
c p weight 273 0.36624072 0
c p weight -273 0.63375928 0
c p weight 274 0.25591773 0
c p weight -274 0.74408227 0
c p weight 275 0.31549431 0
c p weight -275 0.68450569 0
c p weight 276 0.44797070 0
c p weight -276 0.55202930 0
c p weight 277 0.30464497 0
c p weight -277 0.69535503 0
c p weight 278 0.40641348 0
c p weight -278 0.59358652 0
c p weight 279 0.38121418 0
c p weight -279 0.61878582 0
c p weight 280 0.44273991 0
c p weight -280 0.55726009 0
c p weight 281 0.47586057 0
c p weight -281 0.52413943 0
c p weight 282 0.41730966 0
c p weight -282 0.58269034 0
c p weight 283 0.52353616 0
c p weight -283 0.47646384 0
c p weight 284 0.66069883 0
c p weight -284 0.33930117 0
c p weight 285 0.51270248 0
c p weight -285 0.48729752 0
c p weight 286 0.25734956 0
c p weight -286 0.74265044 0
c p weight 287 0.47370485 0
c p weight -287 0.52629515 0
c p weight 251 0.23038401 0
c p weight -251 0.76961599 0
c p weight 252 0.44095056 0
c p weight -252 0.55904944 0
c p weight 253 0.49478997 0
c p weight -253 0.50521003 0
c p weight 254 0.63429061 0
c p weight -254 0.36570939 0
c p weight 255 0.63332611 0
c p weight -255 0.36667389 0
